(declare-const a Real)
(declare-const b Real)
(declare-const c Real)
(assert (= (* a b c) 1))
(assert (> a 0))
(assert (> b 0))
(assert (> c 0))
(assert (not (<= (+ (* -7069384 (pow b 4)) (* -5422792 (pow a 4)) (* (/ 1 416232) (pow (+ (* 52029 (pow a 2)) (* 52029 (pow b 2)) (* 312174 a b)) 2)) (* -14155776 (pow a (pow 3 -1)) (pow b (/ 11 3))) (* -7077888 (pow a (/ 10 3)) (pow b (/ 2 3))) (* 7930324 b (pow a 3)) (* 25379284 a (pow b 3))) 0)))
(check-sat)
(get-model)
(exit)